\Problem name: compact

Minimize
OBJROW: C
Subject To
ord(0,1):  x(0,1) - x(0,2) >= 3
ord(0,2):  - x(0,1) + x(0,3) >= 10
ord(0,3):  x(0,0) - x(0,3) >= 8
ord(1,1):  - x(1,1) + x(1,2) >= 2
ord(1,2):  x(1,0) - x(1,2) >= 7
ord(1,3):  - x(1,0) + x(1,3) >= 3
ord(2,1):  x(2,0) - x(2,3) >= 9
ord(2,2):  - x(2,0) + x(2,2) >= 6
ord(2,3):  x(2,1) - x(2,2) >= 1
triangle2(0,1,0):  y(0,1,0) + y(1,0,0) = 1
triangle2(0,1,1):  y(0,1,1) + y(1,0,1) = 1
triangle2(0,1,2):  y(0,1,2) + y(1,0,2) = 1
triangle2(0,1,3):  y(0,1,3) + y(1,0,3) = 1
triangle2(0,2,0):  y(0,2,0) + y(2,0,0) = 1
triangle2(0,2,1):  y(0,2,1) + y(2,0,1) = 1
triangle2(0,2,2):  y(0,2,2) + y(2,0,2) = 1
triangle2(0,2,3):  y(0,2,3) + y(2,0,3) = 1
triangle2(1,2,0):  y(1,2,0) + y(2,1,0) = 1
triangle2(1,2,1):  y(1,2,1) + y(2,1,1) = 1
triangle2(1,2,2):  y(1,2,2) + y(2,1,2) = 1
triangle2(1,2,3):  y(1,2,3) + y(2,1,3) = 1
MCLinV(0,1,0):  x(0,0) - v(0,1,0) - x(1,0) = 3
MCLinV(1,0,0):  - x(0,0) - v(1,0,0) + x(1,0) = 7
MCLin1(0,1,0):  u(0,1,0) >= -0
MCLin2(0,1,0):  -44 y(1,0,0) - u(0,1,0) <= -0
MCLin3(0,1,0):  56 y(1,0,0) + v(0,1,0) - u(0,1,0) <= 56
MCLin4(0,1,0):  56 y(1,0,0) - u(0,1,0) >= -0
MCLin5(0,1,0):  -44 y(1,0,0) + v(0,1,0) - u(0,1,0) >= -44
MCLin6(1,0,0):  u(1,0,0) >= -0
MCLin7(1,0,0):  -66 y(0,1,0) - u(1,0,0) <= -0
MCLin8(1,0,0):  34 y(0,1,0) + v(1,0,0) - u(1,0,0) <= 34
MCLin9(1,0,0):  34 y(0,1,0) - u(1,0,0) >= -0
MCLin10(1,0,0):  -66 y(0,1,0) + v(1,0,0) - u(1,0,0) >= -66
MCLinV(0,1,1):  x(0,1) - v(0,1,1) - x(1,1) = 2
MCLinV(1,0,1):  - x(0,1) - v(1,0,1) + x(1,1) = 10
MCLin1(0,1,1):  u(0,1,1) >= -0
MCLin2(0,1,1):  -52 y(1,0,1) - u(0,1,1) <= -0
MCLin3(0,1,1):  48 y(1,0,1) + v(0,1,1) - u(0,1,1) <= 48
MCLin4(0,1,1):  48 y(1,0,1) - u(0,1,1) >= -0
MCLin5(0,1,1):  -52 y(1,0,1) + v(0,1,1) - u(0,1,1) >= -52
MCLin6(1,0,1):  u(1,0,1) >= -0
MCLin7(1,0,1):  -60 y(0,1,1) - u(1,0,1) <= -0
MCLin8(1,0,1):  40 y(0,1,1) + v(1,0,1) - u(1,0,1) <= 40
MCLin9(1,0,1):  40 y(0,1,1) - u(1,0,1) >= -0
MCLin10(1,0,1):  -60 y(0,1,1) + v(1,0,1) - u(1,0,1) >= -60
MCLinV(0,1,2):  x(0,2) - v(0,1,2) - x(1,2) = 7
MCLinV(1,0,2):  - x(0,2) - v(1,0,2) + x(1,2) = 3
MCLin1(0,1,2):  u(0,1,2) >= -0
MCLin2(0,1,2):  -62 y(1,0,2) - u(0,1,2) <= -0
MCLin3(0,1,2):  38 y(1,0,2) + v(0,1,2) - u(0,1,2) <= 38
MCLin4(0,1,2):  38 y(1,0,2) - u(0,1,2) >= -0
MCLin5(0,1,2):  -62 y(1,0,2) + v(0,1,2) - u(0,1,2) >= -62
MCLin6(1,0,2):  u(1,0,2) >= -0
MCLin7(1,0,2):  -48 y(0,1,2) - u(1,0,2) <= -0
MCLin8(1,0,2):  52 y(0,1,2) + v(1,0,2) - u(1,0,2) <= 52
MCLin9(1,0,2):  52 y(0,1,2) - u(1,0,2) >= -0
MCLin10(1,0,2):  -48 y(0,1,2) + v(1,0,2) - u(1,0,2) >= -48
MCLinV(0,1,3):  x(0,3) - v(0,1,3) - x(1,3) = 10
MCLinV(1,0,3):  - x(0,3) - v(1,0,3) + x(1,3) = 8
MCLin1(0,1,3):  u(0,1,3) >= -0
MCLin2(0,1,3):  -62 y(1,0,3) - u(0,1,3) <= -0
MCLin3(0,1,3):  38 y(1,0,3) + v(0,1,3) - u(0,1,3) <= 38
MCLin4(0,1,3):  38 y(1,0,3) - u(0,1,3) >= -0
MCLin5(0,1,3):  -62 y(1,0,3) + v(0,1,3) - u(0,1,3) >= -62
MCLin6(1,0,3):  u(1,0,3) >= -0
MCLin7(1,0,3):  -56 y(0,1,3) - u(1,0,3) <= -0
MCLin8(1,0,3):  44 y(0,1,3) + v(1,0,3) - u(1,0,3) <= 44
MCLin9(1,0,3):  44 y(0,1,3) - u(1,0,3) >= -0
MCLin10(1,0,3):  -56 y(0,1,3) + v(1,0,3) - u(1,0,3) >= -56
MCLinV(0,2,0):  x(0,0) - v(0,2,0) - x(2,0) = 6
MCLinV(2,0,0):  - x(0,0) - v(2,0,0) + x(2,0) = 7
MCLin1(0,2,0):  u(0,2,0) >= -0
MCLin2(0,2,0):  -44 y(2,0,0) - u(0,2,0) <= -0
MCLin3(0,2,0):  53 y(2,0,0) + v(0,2,0) - u(0,2,0) <= 53
MCLin4(0,2,0):  53 y(2,0,0) - u(0,2,0) >= -0
MCLin5(0,2,0):  -44 y(2,0,0) + v(0,2,0) - u(0,2,0) >= -44
MCLin6(2,0,0):  u(2,0,0) >= -0
MCLin7(2,0,0):  -66 y(0,2,0) - u(2,0,0) <= -0
MCLin8(2,0,0):  31 y(0,2,0) + v(2,0,0) - u(2,0,0) <= 31
MCLin9(2,0,0):  31 y(0,2,0) - u(2,0,0) >= -0
MCLin10(2,0,0):  -66 y(0,2,0) + v(2,0,0) - u(2,0,0) >= -66
MCLinV(0,2,1):  x(0,1) - v(0,2,1) - x(2,1) = 9
MCLinV(2,0,1):  - x(0,1) - v(2,0,1) + x(2,1) = 10
MCLin1(0,2,1):  u(0,2,1) >= -0
MCLin2(0,2,1):  -72 y(2,0,1) - u(0,2,1) <= -0
MCLin3(0,2,1):  25 y(2,0,1) + v(0,2,1) - u(0,2,1) <= 25
MCLin4(0,2,1):  25 y(2,0,1) - u(0,2,1) >= -0
MCLin5(0,2,1):  -72 y(2,0,1) + v(0,2,1) - u(0,2,1) >= -72
MCLin6(2,0,1):  u(2,0,1) >= -0
MCLin7(2,0,1):  -44 y(0,2,1) - u(2,0,1) <= -0
MCLin8(2,0,1):  53 y(0,2,1) + v(2,0,1) - u(2,0,1) <= 53
MCLin9(2,0,1):  53 y(0,2,1) - u(2,0,1) >= -0
MCLin10(2,0,1):  -44 y(0,2,1) + v(2,0,1) - u(2,0,1) >= -44
MCLinV(0,2,2):  x(0,2) - v(0,2,2) - x(2,2) = 1
MCLinV(2,0,2):  - x(0,2) - v(2,0,2) + x(2,2) = 3
MCLin1(0,2,2):  u(0,2,2) >= -0
MCLin2(0,2,2):  -66 y(2,0,2) - u(0,2,2) <= -0
MCLin3(0,2,2):  31 y(2,0,2) + v(0,2,2) - u(0,2,2) <= 31
MCLin4(0,2,2):  31 y(2,0,2) - u(0,2,2) >= -0
MCLin5(0,2,2):  -66 y(2,0,2) + v(0,2,2) - u(0,2,2) >= -66
MCLin6(2,0,2):  u(2,0,2) >= -0
MCLin7(2,0,2):  -35 y(0,2,2) - u(2,0,2) <= -0
MCLin8(2,0,2):  62 y(0,2,2) + v(2,0,2) - u(2,0,2) <= 62
MCLin9(2,0,2):  62 y(0,2,2) - u(2,0,2) >= -0
MCLin10(2,0,2):  -35 y(0,2,2) + v(2,0,2) - u(2,0,2) >= -35
MCLinV(0,2,3):  x(0,3) - v(0,2,3) - x(2,3) = 9
MCLinV(2,0,3):  - x(0,3) - v(2,0,3) + x(2,3) = 8
MCLin1(0,2,3):  u(0,2,3) >= -0
MCLin2(0,2,3):  -46 y(2,0,3) - u(0,2,3) <= -0
MCLin3(0,2,3):  51 y(2,0,3) + v(0,2,3) - u(0,2,3) <= 51
MCLin4(0,2,3):  51 y(2,0,3) - u(0,2,3) >= -0
MCLin5(0,2,3):  -46 y(2,0,3) + v(0,2,3) - u(0,2,3) >= -46
MCLin6(2,0,3):  u(2,0,3) >= -0
MCLin7(2,0,3):  -68 y(0,2,3) - u(2,0,3) <= -0
MCLin8(2,0,3):  29 y(0,2,3) + v(2,0,3) - u(2,0,3) <= 29
MCLin9(2,0,3):  29 y(0,2,3) - u(2,0,3) >= -0
MCLin10(2,0,3):  -68 y(0,2,3) + v(2,0,3) - u(2,0,3) >= -68
MCLinV(1,2,0):  x(1,0) - v(1,2,0) - x(2,0) = 6
MCLinV(2,1,0):  - x(1,0) - v(2,1,0) + x(2,0) = 3
MCLin1(1,2,0):  u(1,2,0) >= -0
MCLin2(1,2,0):  -56 y(2,1,0) - u(1,2,0) <= -0
MCLin3(1,2,0):  47 y(2,1,0) + v(1,2,0) - u(1,2,0) <= 47
MCLin4(1,2,0):  47 y(2,1,0) - u(1,2,0) >= -0
MCLin5(1,2,0):  -56 y(2,1,0) + v(1,2,0) - u(1,2,0) >= -56
MCLin6(2,1,0):  u(2,1,0) >= -0
MCLin7(2,1,0):  -56 y(1,2,0) - u(2,1,0) <= -0
MCLin8(2,1,0):  47 y(1,2,0) + v(2,1,0) - u(2,1,0) <= 47
MCLin9(2,1,0):  47 y(1,2,0) - u(2,1,0) >= -0
MCLin10(2,1,0):  -56 y(1,2,0) + v(2,1,0) - u(2,1,0) >= -56
MCLinV(1,2,1):  x(1,1) - v(1,2,1) - x(2,1) = 9
MCLinV(2,1,1):  - x(1,1) - v(2,1,1) + x(2,1) = 2
MCLin1(1,2,1):  u(1,2,1) >= -0
MCLin2(1,2,1):  -75 y(2,1,1) - u(1,2,1) <= -0
MCLin3(1,2,1):  28 y(2,1,1) + v(1,2,1) - u(1,2,1) <= 28
MCLin4(1,2,1):  28 y(2,1,1) - u(1,2,1) >= -0
MCLin5(1,2,1):  -75 y(2,1,1) + v(1,2,1) - u(1,2,1) >= -75
MCLin6(2,1,1):  u(2,1,1) >= -0
MCLin7(2,1,1):  -39 y(1,2,1) - u(2,1,1) <= -0
MCLin8(2,1,1):  64 y(1,2,1) + v(2,1,1) - u(2,1,1) <= 64
MCLin9(2,1,1):  64 y(1,2,1) - u(2,1,1) >= -0
MCLin10(2,1,1):  -39 y(1,2,1) + v(2,1,1) - u(2,1,1) >= -39
MCLinV(1,2,2):  x(1,2) - v(1,2,2) - x(2,2) = 1
MCLinV(2,1,2):  - x(1,2) - v(2,1,2) + x(2,2) = 7
MCLin1(1,2,2):  u(1,2,2) >= -0
MCLin2(1,2,2):  -64 y(2,1,2) - u(1,2,2) <= -0
MCLin3(1,2,2):  39 y(2,1,2) + v(1,2,2) - u(1,2,2) <= 39
MCLin4(1,2,2):  39 y(2,1,2) - u(1,2,2) >= -0
MCLin5(1,2,2):  -64 y(2,1,2) + v(1,2,2) - u(1,2,2) >= -64
MCLin6(2,1,2):  u(2,1,2) >= -0
MCLin7(2,1,2):  -47 y(1,2,2) - u(2,1,2) <= -0
MCLin8(2,1,2):  56 y(1,2,2) + v(2,1,2) - u(2,1,2) <= 56
MCLin9(2,1,2):  56 y(1,2,2) - u(2,1,2) >= -0
MCLin10(2,1,2):  -47 y(1,2,2) + v(2,1,2) - u(2,1,2) >= -47
MCLinV(1,2,3):  x(1,3) - v(1,2,3) - x(2,3) = 9
MCLinV(2,1,3):  - x(1,3) - v(2,1,3) + x(2,3) = 10
MCLin1(1,2,3):  u(1,2,3) >= -0
MCLin2(1,2,3):  -47 y(2,1,3) - u(1,2,3) <= -0
MCLin3(1,2,3):  56 y(2,1,3) + v(1,2,3) - u(1,2,3) <= 56
MCLin4(1,2,3):  56 y(2,1,3) - u(1,2,3) >= -0
MCLin5(1,2,3):  -47 y(2,1,3) + v(1,2,3) - u(1,2,3) >= -47
MCLin6(2,1,3):  u(2,1,3) >= -0
MCLin7(2,1,3):  -75 y(1,2,3) - u(2,1,3) <= -0
MCLin8(2,1,3):  28 y(1,2,3) + v(2,1,3) - u(2,1,3) <= 28
MCLin9(2,1,3):  28 y(1,2,3) - u(2,1,3) >= -0
MCLin10(2,1,3):  -75 y(1,2,3) + v(2,1,3) - u(2,1,3) >= -75
makespan(0):  C - x(0,0) >= 7
makespan(1):  C - x(1,3) >= 10
makespan(2):  C - x(2,1) >= 9
Bounds
 0 <= C <= 75
 21 <= x(0,0) <= 68
 0 <= y(0,1,0) <= 1
 0 <= y(1,0,0) <= 1
 -44 <= v(0,1,0) <= 56
 -66 <= v(1,0,0) <= 34
 -750 <= u(0,1,0)
 -750 <= u(1,0,0)
 0 <= y(0,2,0) <= 1
 0 <= y(2,0,0) <= 1
 -44 <= v(0,2,0) <= 53
 -66 <= v(2,0,0) <= 31
 -750 <= u(0,2,0)
 -750 <= u(2,0,0)
 9 <= x(1,0) <= 62
 0 <= y(1,2,0) <= 1
 0 <= y(2,1,0) <= 1
 -56 <= v(1,2,0) <= 47
 -56 <= v(2,1,0) <= 47
 -750 <= u(1,2,0)
 -750 <= u(2,1,0)
 9 <= x(2,0) <= 59
 3 <= x(0,1) <= 50
 0 <= y(0,1,1) <= 1
 0 <= y(1,0,1) <= 1
 -52 <= v(0,1,1) <= 48
 -60 <= v(1,0,1) <= 40
 -750 <= u(0,1,1)
 -750 <= u(1,0,1)
 0 <= y(0,2,1) <= 1
 0 <= y(2,0,1) <= 1
 -72 <= v(0,2,1) <= 25
 -44 <= v(2,0,1) <= 53
 -750 <= u(0,2,1)
 -750 <= u(2,0,1)
 0 <= x(1,1) <= 53
 0 <= y(1,2,1) <= 1
 0 <= y(2,1,1) <= 1
 -75 <= v(1,2,1) <= 28
 -39 <= v(2,1,1) <= 64
 -750 <= u(1,2,1)
 -750 <= u(2,1,1)
 16 <= x(2,1) <= 66
 0 <= x(0,2) <= 47
 0 <= y(0,1,2) <= 1
 0 <= y(1,0,2) <= 1
 -62 <= v(0,1,2) <= 38
 -48 <= v(1,0,2) <= 52
 -750 <= u(0,1,2)
 -750 <= u(1,0,2)
 0 <= y(0,2,2) <= 1
 0 <= y(2,0,2) <= 1
 -66 <= v(0,2,2) <= 31
 -35 <= v(2,0,2) <= 62
 -750 <= u(0,2,2)
 -750 <= u(2,0,2)
 2 <= x(1,2) <= 55
 0 <= y(1,2,2) <= 1
 0 <= y(2,1,2) <= 1
 -64 <= v(1,2,2) <= 39
 -47 <= v(2,1,2) <= 56
 -750 <= u(1,2,2)
 -750 <= u(2,1,2)
 15 <= x(2,2) <= 65
 13 <= x(0,3) <= 60
 0 <= y(0,1,3) <= 1
 0 <= y(1,0,3) <= 1
 -62 <= v(0,1,3) <= 38
 -56 <= v(1,0,3) <= 44
 -750 <= u(0,1,3)
 -750 <= u(1,0,3)
 0 <= y(0,2,3) <= 1
 0 <= y(2,0,3) <= 1
 -46 <= v(0,2,3) <= 51
 -68 <= v(2,0,3) <= 29
 -750 <= u(0,2,3)
 -750 <= u(2,0,3)
 12 <= x(1,3) <= 65
 0 <= y(1,2,3) <= 1
 0 <= y(2,1,3) <= 1
 -47 <= v(1,2,3) <= 56
 -75 <= v(2,1,3) <= 28
 -750 <= u(1,2,3)
 -750 <= u(2,1,3)
 0 <= x(2,3) <= 50
Integers
C x(0,0) y(0,1,0) y(1,0,0) v(0,1,0) v(1,0,0) u(0,1,0) u(1,0,0) y(0,2,0) y(2,0,0) 
v(0,2,0) v(2,0,0) u(0,2,0) u(2,0,0) x(1,0) y(1,2,0) y(2,1,0) v(1,2,0) v(2,1,0) u(1,2,0) 
u(2,1,0) x(2,0) x(0,1) y(0,1,1) y(1,0,1) v(0,1,1) v(1,0,1) u(0,1,1) u(1,0,1) y(0,2,1) 
y(2,0,1) v(0,2,1) v(2,0,1) u(0,2,1) u(2,0,1) x(1,1) y(1,2,1) y(2,1,1) v(1,2,1) v(2,1,1) 
u(1,2,1) u(2,1,1) x(2,1) x(0,2) y(0,1,2) y(1,0,2) v(0,1,2) v(1,0,2) u(0,1,2) u(1,0,2) 
y(0,2,2) y(2,0,2) v(0,2,2) v(2,0,2) u(0,2,2) u(2,0,2) x(1,2) y(1,2,2) y(2,1,2) v(1,2,2) 
v(2,1,2) u(1,2,2) u(2,1,2) x(2,2) x(0,3) y(0,1,3) y(1,0,3) v(0,1,3) v(1,0,3) u(0,1,3) 
u(1,0,3) y(0,2,3) y(2,0,3) v(0,2,3) v(2,0,3) u(0,2,3) u(2,0,3) x(1,3) y(1,2,3) y(2,1,3) 
v(1,2,3) v(2,1,3) u(1,2,3) u(2,1,3) x(2,3) 
End
